experiment/data/hgs-res/Vrp-Set-P-n51/Vrp-Set-P-n51-hgs/0.hgs1.vrp
NAME : 0
COMMENT : CVRP Instance
TYPE : CVRP
DIMENSION : 51
EDGE_WEIGHT_TYPE : EUC_2D
CAPACITY : 80
NODE_COORD_SECTION
1	30.0	40.0
2	37.0	52.0
3	49.0	49.0
4	52.0	64.0
5	20.0	26.0
6	40.0	30.0
7	21.0	47.0
8	17.0	63.0
9	31.0	62.0
10	52.0	33.0
11	51.0	21.0
12	42.0	41.0
13	31.0	32.0
14	5.0	25.0
15	12.0	42.0
16	36.0	16.0
17	52.0	41.0
18	27.0	23.0
19	17.0	33.0
20	13.0	13.0
21	57.0	58.0
22	62.0	42.0
23	42.0	57.0
24	16.0	57.0
25	8.0	52.0
26	7.0	38.0
27	27.0	68.0
28	30.0	48.0
29	43.0	67.0
30	58.0	48.0
31	58.0	27.0
32	37.0	69.0
33	38.0	46.0
34	46.0	10.0
35	61.0	33.0
36	62.0	63.0
37	63.0	69.0
38	32.0	22.0
39	45.0	35.0
40	59.0	15.0
41	5.0	6.0
42	10.0	17.0
43	21.0	10.0
44	5.0	64.0
45	30.0	15.0
46	39.0	10.0
47	32.0	39.0
48	25.0	32.0
49	25.0	55.0
50	48.0	28.0
51	56.0	37.0
DEMAND_SECTION
1	0
2	7
3	30
4	16
5	9
6	21
7	15
8	19
9	23
10	11
11	5
12	19
13	29
14	23
15	21
16	10
17	15
18	3
19	41
20	9
21	28
22	8
23	8
24	16
25	10
26	28
27	7
28	15
29	14
30	6
31	19
32	11
33	12
34	23
35	26
36	17
37	6
38	9
39	15
40	14
41	7
42	27
43	13
44	11
45	16
46	10
47	5
48	25
49	17
50	18
51	10
DEPOT_SECTION
1
-1
EOF
