experiment/data/hgs-res/Vrp-Set-P-n51/Vrp-Set-P-n51-hgs/0.hgs1.tour
Route #1: 18 4 47
Route #2: 13 41 40 19 42
Route #3: 5 37 44 17 12
Route #4: 15 45 33 39 10 49
Route #5: 50 21 34 30 9 46
Route #6: 38 16 2 11
Route #7: 29 20 35 36 3 1
Route #8: 32 22 28 31 26 8
Route #9: 24 43 7 23 48
Route #10: 27 6 14 25
Cost 741.499
